problem_generation/data/GISP/train/er_n=66_m=1310_p=0.60_SET2_setparam=100.00_alpha=0.50_869.lp
maximize
OBJ:100x0 + 100x1 + 100x2 + 100x3 + 100x4 + 100x5 + 100x6 + 100x7 + 100x8 + 100x9 + 100x10 + 100x11 + 100x12 + 100x13 + 100x14 + 100x15 + 100x16 + 100x17 + 100x18 + 100x19 + 100x20 + 100x21 + 100x22 + 100x23 + 100x24 + 100x25 + 100x26 + 100x27 + 100x28 + 100x29 + 100x30 + 100x31 + 100x32 + 100x33 + 100x34 + 100x35 + 100x36 + 100x37 + 100x38 + 100x39 + 100x40 + 100x41 + 100x42 + 100x43 + 100x44 + 100x45 + 100x46 + 100x47 + 100x48 + 100x49 + 100x50 + 100x51 + 100x52 + 100x53 + 100x54 + 100x55 + 100x56 + 100x57 + 100x58 + 100x59 + 100x60 + 100x61 + 100x62 + 100x63 + 100x64 + 100x65 - y15_21 - y36_53 - y15_30 - y59_64 - y15_39 - y7_35 - y29_32 - y40_41 - y29_50 - y21_46 - y11_23 - y21_64 - y10_27 - y10_36 - y25_34 - y10_45 - y33_56 - y14_15 - y10_63 - y51_64 - y2_59 - y3_24 - y25_61 - y14_42 - y15_16 - y36_57 - y17_53 - y7_30 - y18_30 - y5_60 - y29_36 - y21_32 - y6_52 - y21_50 - y21_59 - y10_31 - y2_27 - y54_65 - y10_58 - y2_54 - y43_55 - y3_37 - y36_43 - y17_39 - y47_52 - y17_48 - y59_63 - y6_29 - y29_31 - y9_62 - y6_38 - y29_49 - y21_45 - y2_13 - y10_26 - y39_62 - y62_64 - y54_60 - y33_37 - y25_33 - y10_44 - y25_42 - y3_5 - y51_54 - y32_50 - y51_63 - y24_46 - y1_53 - y14_32 - y1_62 - y35_64 - y16_60 - y17_34 - y55_60 - y28_43 - y36_56 - y5_50 - y5_59 - y9_57 - y21_22 - y21_31 - y29_44 - y6_51 - y39_57 - y20_62 - y25_28 - y2_35 - y32_36 - y24_32 - y51_58 - y35_41 - y3_18 - y16_37 - y32_54 - y35_50 - y16_55 - y28_38 - y9_34 - y5_45 - y28_47 - y5_54 - y9_52 - y50_53 - y29_30 - y50_62 - y6_37 - y21_35 - y19_65 - y2_12 - y31_48 - y10_25 - y39_61 - y2_30 - y4_49 - y12_62 - y24_27 - y32_49 - y1_43 - y57_60 - y9_20 - y5_31 - y6_14 - y27_55 - y27_64 - y19_60 - y30_60 - y11_65 - y20_43 - y2_16 - y31_52 - y23_48 - y4_44 - y12_57 - y23_57 - y24_31 - y4_62 - y1_38 - y24_40 - y13_49 - y24_49 - y16_45 - y5_8 - y1_56 - y16_54 - y5_17 - y17_19 - y46_55 - y49_51 - y17_28 - y9_24 - y5_35 - y5_44 - y27_41 - y27_59 - y50_61 - y19_55 - y0_51 - y20_29 - y12_25 - y31_38 - y2_11 - y20_47 - y20_56 - y12_52 - y23_52 - y4_48 - y13_26 - y53_62 - y32_39 - y34_58 - y1_33 - y16_40 - y5_12 - y46_50 - y38_46 - y17_23 - y7_58 - y18_58 - y27_45 - y19_41 - y8_50 - y11_46 - y11_55 - y11_64 - y23_29 - y39_46 - y4_25 - y12_38 - y23_38 - y23_47 - y1_19 - y53_57 - y4_52 - y16_17 - y13_30 - y16_26 - y22_60 - y45_62 - y1_46 - y5_7 - y9_14 - y26_48 - y49_50 - y7_44 - y15_57 - y26_57 - y7_53 - y27_31 - y8_27 - y19_27 - y30_36 - y11_32 - y8_45 - y42_47 - y19_63 - y0_59 - y11_59 - y12_24 - y41_60 - y12_33 - y12_42 - y23_42 - y4_38 - y1_14 - y13_16 - y4_47 - y45_48 - y1_23 - y53_61 - y34_57 - y3_51 - y15_34 - y26_34 - y7_39 - y18_39 - y15_52 - y26_52 - y38_54 - y49_54 - y38_63 - y0_18 - y11_18 - y30_31 - y8_49 - y19_49 - y11_45 - y41_46 - y4_6 - y20_32 - y12_37 - y23_37 - y25_65 - y37_39 - y34_52 - y53_65 - y45_61 - y37_57 - y15_29 - y7_25 - y18_25 - y15_38 - y0_4 - y11_13 - y8_26 - y48_62 - y0_22 - y19_35 - y30_35 - y0_31 - y8_44 - y21_63 - y30_44 - y11_40 - y60_63 - y4_10 - y44_46 - y12_23 - y4_19 - y4_28 - y2_58 - y22_36 - y22_45 - y3_41 - y14_41 - y3_50 - y3_59 - y37_61 - y7_20 - y18_20 - y15_33 - y18_29 - y18_47 - y8_21 - y48_57 - y19_30 - y11_26 - y29_62 - y63_64 - y41_54 - y25_37 - y10_48 - y33_50 - y44_50 - y2_44 - y2_53 - y22_31 - y25_64 - y3_27 - y14_27 - y14_36 - y3_45 - y15_28 - y7_24 - y15_37 - y7_42 - y8_16 - y48_52 - y0_12 - y48_61 - y33_36 - y2_39 - y33_54 - y44_54 - y33_63 - y22_26 - y51_62 - y3_22 - y22_35 - y3_31 - y22_44 - y3_40 - y37_42 - y22_53 - y55_59 - y15_32 - y28_51 - y47_64 - y28_60 - y9_56 - y0_7 - y6_50 - y11_16 - y40_61 - y21_57 - y10_29 - y25_27 - y10_38 - y33_40 - y44_49 - y10_56 - y14_17 - y32_53 - y2_61 - y3_26 - y32_62 - y22_39 - y43_62 - y3_44 - y14_44 - y36_50 - y17_46 - y28_46 - y7_23 - y18_23 - y9_51 - y28_64 - y0_2 - y21_34 - y6_45 - y40_47 - y29_56 - y21_52 - y10_24 - y10_42 - y2_38 - y10_51 - y51_52 - y2_47 - y3_12 - y32_48 - y51_61 - y13_53 - y24_53 - y3_30 - y14_30 - y1_60 - y13_62 - y17_32 - y7_9 - y55_58 - y47_54 - y5_48 - y17_50 - y9_46 - y17_59 - y6_22 - y6_31 - y9_64 - y61_65 - y6_40 - y29_42 - y29_51 - y21_47 - y6_58 - y39_55 - y2_15 - y10_28 - y31_60 - y54_62 - y10_37 - y51_56 - y14_16 - y32_52 - y43_52 - y3_25 - y16_44 - y32_61 - y13_57 - y36_49 - y9_32 - y6_8 - y5_52 - y9_50 - y6_26 - y50_60 - y6_44 - y42_65 - y39_59 - y2_19 - y31_64 - y4_56 - y32_38 - y3_11 - y32_47 - y35_43 - y16_39 - y32_65 - y9_18 - y36_44 - y9_27 - y17_40 - y9_36 - y5_47 - y6_12 - y17_49 - y9_45 - y5_56 - y58_59 - y61_64 - y11_63 - y20_41 - y10_18 - y62_65 - y12_46 - y4_42 - y32_33 - y12_64 - y16_25 - y16_34 - y13_47 - y46_53 - y16_61 - y57_62 - y36_39 - y5_33 - y17_35 - y28_44 - y6_7 - y6_16 - y21_23 - y27_57 - y50_59 - y8_53 - y30_62 - y42_64 - y11_58 - y10_13 - y12_32 - y31_45 - y12_41 - y12_59 - y1_31 - y13_33 - y24_33 - y1_40 - y24_51 - y38_44 - y9_17 - y49_53 - y26_60 - y7_65 - y18_65 - y19_39 - y27_52 - y8_48 - y30_48 - y42_50 - y11_44 - y19_57 - y20_22 - y12_27 - y23_27 - y39_53 - y12_45 - y1_8 - y31_58 - y23_63 - y4_59 - y34_60 - y1_35 - y38_39 - y46_61 - y19_34 - y8_43 - y11_39 - y12_13 - y60_62 - y20_35 - y31_44 - y12_49 - y4_45 - y16_19 - y34_55 - y45_55 - y45_64 - y3_58 - y5_9 - y5_18 - y46_56 - y38_52 - y46_65 - y18_46 - y8_29 - y19_29 - y27_42 - y0_25 - y27_51 - y19_47 - y30_47 - y20_21 - y0_52 - y52_53 - y20_30 - y4_13 - y4_22 - y12_35 - y23_44 - y4_40 - y22_48 - y34_50 - y16_23 - y34_59 - y45_59 - y3_53 - y14_53 - y3_62 - y5_13 - y15_45 - y26_45 - y26_54 - y49_56 - y26_63 - y27_28 - y0_11 - y8_33 - y11_29 - y30_51 - y11_47 - y41_48 - y4_8 - y10_60 - y2_65 - y1_20 - y14_39 - y45_54 - y7_18 - y15_31 - y18_27 - y26_40 - y18_36 - y26_58 - y7_54 - y8_19 - y11_15 - y19_28 - y29_60 - y40_60 - y30_37 - y0_33 - y0_42 - y41_43 - y12_16 - y4_12 - y33_48 - y2_51 - y1_6 - y22_38 - y3_34 - y14_43 - y56_58 - y14_52 - y15_17 - y26_35 - y26_44 - y17_63 - y7_49 - y48_50 - y0_10 - y29_46 - y19_23 - y0_19 - y40_55 - y0_28 - y6_62 - y11_28 - y21_60 - y33_34 - y41_47 - y25_30 - y10_41 - y41_56 - y10_50 - y33_52 - y41_65 - y2_46 - y25_48 - y10_59 - y34_35 - y14_29 - y34_44 - y3_38 - y37_40 - y22_51 - y14_47
 Subject to
C1: x0+x1 <=1 
C2: x0+x2-y0_2 <=1 
C3: x0+x4-y0_4 <=1 
C4: x0+x5 <=1 
C5: x0+x6 <=1 
C6: x0+x7-y0_7 <=1 
C7: x0+x8 <=1 
C8: x0+x10-y0_10 <=1 
C9: x0+x11-y0_11 <=1 
C10: x0+x12-y0_12 <=1 
C11: x0+x15 <=1 
C12: x0+x16 <=1 
C13: x0+x18-y0_18 <=1 
C14: x0+x19-y0_19 <=1 
C15: x0+x20 <=1 
C16: x0+x21 <=1 
C17: x0+x22-y0_22 <=1 
C18: x0+x23 <=1 
C19: x0+x25-y0_25 <=1 
C20: x0+x27 <=1 
C21: x0+x28-y0_28 <=1 
C22: x0+x29 <=1 
C23: x0+x31-y0_31 <=1 
C24: x0+x33-y0_33 <=1 
C25: x0+x34 <=1 
C26: x0+x42-y0_42 <=1 
C27: x0+x43 <=1 
C28: x0+x44 <=1 
C29: x0+x47 <=1 
C30: x0+x50 <=1 
C31: x0+x51-y0_51 <=1 
C32: x0+x52-y0_52 <=1 
C33: x0+x54 <=1 
C34: x0+x55 <=1 
C35: x0+x56 <=1 
C36: x0+x59-y0_59 <=1 
C37: x0+x60 <=1 
C38: x0+x64 <=1 
C39: x1+x2 <=1 
C40: x1+x3 <=1 
C41: x1+x4 <=1 
C42: x1+x6-y1_6 <=1 
C43: x1+x8-y1_8 <=1 
C44: x1+x9 <=1 
C45: x1+x10 <=1 
C46: x1+x14-y1_14 <=1 
C47: x1+x16 <=1 
C48: x1+x18 <=1 
C49: x1+x19-y1_19 <=1 
C50: x1+x20-y1_20 <=1 
C51: x1+x23-y1_23 <=1 
C52: x1+x24 <=1 
C53: x1+x28 <=1 
C54: x1+x31-y1_31 <=1 
C55: x1+x32 <=1 
C56: x1+x33-y1_33 <=1 
C57: x1+x35-y1_35 <=1 
C58: x1+x36 <=1 
C59: x1+x38-y1_38 <=1 
C60: x1+x39 <=1 
C61: x1+x40-y1_40 <=1 
C62: x1+x43-y1_43 <=1 
C63: x1+x46-y1_46 <=1 
C64: x1+x50 <=1 
C65: x1+x53-y1_53 <=1 
C66: x1+x54 <=1 
C67: x1+x56-y1_56 <=1 
C68: x1+x57 <=1 
C69: x1+x58 <=1 
C70: x1+x59 <=1 
C71: x1+x60-y1_60 <=1 
C72: x1+x62-y1_62 <=1 
C73: x2+x5 <=1 
C74: x2+x8 <=1 
C75: x2+x10 <=1 
C76: x2+x11-y2_11 <=1 
C77: x2+x12-y2_12 <=1 
C78: x2+x13-y2_13 <=1 
C79: x2+x15-y2_15 <=1 
C80: x2+x16-y2_16 <=1 
C81: x2+x19-y2_19 <=1 
C82: x2+x20 <=1 
C83: x2+x24 <=1 
C84: x2+x25 <=1 
C85: x2+x27-y2_27 <=1 
C86: x2+x28 <=1 
C87: x2+x29 <=1 
C88: x2+x30-y2_30 <=1 
C89: x2+x31 <=1 
C90: x2+x34 <=1 
C91: x2+x35-y2_35 <=1 
C92: x2+x38-y2_38 <=1 
C93: x2+x39-y2_39 <=1 
C94: x2+x41 <=1 
C95: x2+x42 <=1 
C96: x2+x44-y2_44 <=1 
C97: x2+x45 <=1 
C98: x2+x46-y2_46 <=1 
C99: x2+x47-y2_47 <=1 
C100: x2+x48 <=1 
C101: x2+x49 <=1 
C102: x2+x50 <=1 
C103: x2+x51-y2_51 <=1 
C104: x2+x53-y2_53 <=1 
C105: x2+x54-y2_54 <=1 
C106: x2+x58-y2_58 <=1 
C107: x2+x59-y2_59 <=1 
C108: x2+x61-y2_61 <=1 
C109: x2+x65-y2_65 <=1 
C110: x3+x5-y3_5 <=1 
C111: x3+x9 <=1 
C112: x3+x10 <=1 
C113: x3+x11-y3_11 <=1 
C114: x3+x12-y3_12 <=1 
C115: x3+x13 <=1 
C116: x3+x14 <=1 
C117: x3+x16 <=1 
C118: x3+x18-y3_18 <=1 
C119: x3+x20 <=1 
C120: x3+x22-y3_22 <=1 
C121: x3+x24-y3_24 <=1 
C122: x3+x25-y3_25 <=1 
C123: x3+x26-y3_26 <=1 
C124: x3+x27-y3_27 <=1 
C125: x3+x30-y3_30 <=1 
C126: x3+x31-y3_31 <=1 
C127: x3+x32 <=1 
C128: x3+x34-y3_34 <=1 
C129: x3+x36 <=1 
C130: x3+x37-y3_37 <=1 
C131: x3+x38-y3_38 <=1 
C132: x3+x40-y3_40 <=1 
C133: x3+x41-y3_41 <=1 
C134: x3+x42 <=1 
C135: x3+x43 <=1 
C136: x3+x44-y3_44 <=1 
C137: x3+x45-y3_45 <=1 
C138: x3+x47 <=1 
C139: x3+x48 <=1 
C140: x3+x50-y3_50 <=1 
C141: x3+x51-y3_51 <=1 
C142: x3+x53-y3_53 <=1 
C143: x3+x54 <=1 
C144: x3+x57 <=1 
C145: x3+x58-y3_58 <=1 
C146: x3+x59-y3_59 <=1 
C147: x3+x60 <=1 
C148: x3+x62-y3_62 <=1 
C149: x3+x63 <=1 
C150: x4+x6-y4_6 <=1 
C151: x4+x7 <=1 
C152: x4+x8-y4_8 <=1 
C153: x4+x10-y4_10 <=1 
C154: x4+x11 <=1 
C155: x4+x12-y4_12 <=1 
C156: x4+x13-y4_13 <=1 
C157: x4+x15 <=1 
C158: x4+x16 <=1 
C159: x4+x17 <=1 
C160: x4+x19-y4_19 <=1 
C161: x4+x22-y4_22 <=1 
C162: x4+x23 <=1 
C163: x4+x25-y4_25 <=1 
C164: x4+x27 <=1 
C165: x4+x28-y4_28 <=1 
C166: x4+x30 <=1 
C167: x4+x32 <=1 
C168: x4+x33 <=1 
C169: x4+x36 <=1 
C170: x4+x38-y4_38 <=1 
C171: x4+x40-y4_40 <=1 
C172: x4+x41 <=1 
C173: x4+x42-y4_42 <=1 
C174: x4+x43 <=1 
C175: x4+x44-y4_44 <=1 
C176: x4+x45-y4_45 <=1 
C177: x4+x47-y4_47 <=1 
C178: x4+x48-y4_48 <=1 
C179: x4+x49-y4_49 <=1 
C180: x4+x50 <=1 
C181: x4+x52-y4_52 <=1 
C182: x4+x56-y4_56 <=1 
C183: x4+x59-y4_59 <=1 
C184: x4+x62-y4_62 <=1 
C185: x4+x65 <=1 
C186: x5+x7-y5_7 <=1 
C187: x5+x8-y5_8 <=1 
C188: x5+x9-y5_9 <=1 
C189: x5+x11 <=1 
C190: x5+x12-y5_12 <=1 
C191: x5+x13-y5_13 <=1 
C192: x5+x15 <=1 
C193: x5+x16 <=1 
C194: x5+x17-y5_17 <=1 
C195: x5+x18-y5_18 <=1 
C196: x5+x20 <=1 
C197: x5+x22 <=1 
C198: x5+x25 <=1 
C199: x5+x27 <=1 
C200: x5+x28 <=1 
C201: x5+x31-y5_31 <=1 
C202: x5+x32 <=1 
C203: x5+x33-y5_33 <=1 
C204: x5+x35-y5_35 <=1 
C205: x5+x36 <=1 
C206: x5+x40 <=1 
C207: x5+x42 <=1 
C208: x5+x43 <=1 
C209: x5+x44-y5_44 <=1 
C210: x5+x45-y5_45 <=1 
C211: x5+x47-y5_47 <=1 
C212: x5+x48-y5_48 <=1 
C213: x5+x49 <=1 
C214: x5+x50-y5_50 <=1 
C215: x5+x51 <=1 
C216: x5+x52-y5_52 <=1 
C217: x5+x54-y5_54 <=1 
C218: x5+x55 <=1 
C219: x5+x56-y5_56 <=1 
C220: x5+x57 <=1 
C221: x5+x59-y5_59 <=1 
C222: x5+x60-y5_60 <=1 
C223: x5+x62 <=1 
C224: x5+x65 <=1 
C225: x6+x7-y6_7 <=1 
C226: x6+x8-y6_8 <=1 
C227: x6+x9 <=1 
C228: x6+x10 <=1 
C229: x6+x12-y6_12 <=1 
C230: x6+x13 <=1 
C231: x6+x14-y6_14 <=1 
C232: x6+x16-y6_16 <=1 
C233: x6+x17 <=1 
C234: x6+x18 <=1 
C235: x6+x22-y6_22 <=1 
C236: x6+x26-y6_26 <=1 
C237: x6+x28 <=1 
C238: x6+x29-y6_29 <=1 
C239: x6+x30 <=1 
C240: x6+x31-y6_31 <=1 
C241: x6+x34 <=1 
C242: x6+x36 <=1 
C243: x6+x37-y6_37 <=1 
C244: x6+x38-y6_38 <=1 
C245: x6+x40-y6_40 <=1 
C246: x6+x42 <=1 
C247: x6+x43 <=1 
C248: x6+x44-y6_44 <=1 
C249: x6+x45-y6_45 <=1 
C250: x6+x49 <=1 
C251: x6+x50-y6_50 <=1 
C252: x6+x51-y6_51 <=1 
C253: x6+x52-y6_52 <=1 
C254: x6+x53 <=1 
C255: x6+x54 <=1 
C256: x6+x57 <=1 
C257: x6+x58-y6_58 <=1 
C258: x6+x59 <=1 
C259: x6+x60 <=1 
C260: x6+x62-y6_62 <=1 
C261: x6+x64 <=1 
C262: x6+x65 <=1 
C263: x7+x8 <=1 
C264: x7+x9-y7_9 <=1 
C265: x7+x11 <=1 
C266: x7+x12 <=1 
C267: x7+x18-y7_18 <=1 
C268: x7+x19 <=1 
C269: x7+x20-y7_20 <=1 
C270: x7+x23-y7_23 <=1 
C271: x7+x24-y7_24 <=1 
C272: x7+x25-y7_25 <=1 
C273: x7+x27 <=1 
C274: x7+x29 <=1 
C275: x7+x30-y7_30 <=1 
C276: x7+x35-y7_35 <=1 
C277: x7+x36 <=1 
C278: x7+x38 <=1 
C279: x7+x39-y7_39 <=1 
C280: x7+x40 <=1 
C281: x7+x41 <=1 
C282: x7+x42-y7_42 <=1 
C283: x7+x44-y7_44 <=1 
C284: x7+x45 <=1 
C285: x7+x46 <=1 
C286: x7+x47 <=1 
C287: x7+x48 <=1 
C288: x7+x49-y7_49 <=1 
C289: x7+x50 <=1 
C290: x7+x51 <=1 
C291: x7+x53-y7_53 <=1 
C292: x7+x54-y7_54 <=1 
C293: x7+x55 <=1 
C294: x7+x58-y7_58 <=1 
C295: x7+x62 <=1 
C296: x7+x65-y7_65 <=1 
C297: x8+x11 <=1 
C298: x8+x14 <=1 
C299: x8+x16-y8_16 <=1 
C300: x8+x19-y8_19 <=1 
C301: x8+x20 <=1 
C302: x8+x21-y8_21 <=1 
C303: x8+x23 <=1 
C304: x8+x24 <=1 
C305: x8+x26-y8_26 <=1 
C306: x8+x27-y8_27 <=1 
C307: x8+x29-y8_29 <=1 
C308: x8+x30 <=1 
C309: x8+x33-y8_33 <=1 
C310: x8+x34 <=1 
C311: x8+x39 <=1 
C312: x8+x40 <=1 
C313: x8+x43-y8_43 <=1 
C314: x8+x44-y8_44 <=1 
C315: x8+x45-y8_45 <=1 
C316: x8+x48-y8_48 <=1 
C317: x8+x49-y8_49 <=1 
C318: x8+x50-y8_50 <=1 
C319: x8+x53-y8_53 <=1 
C320: x8+x57 <=1 
C321: x8+x58 <=1 
C322: x8+x60 <=1 
C323: x8+x61 <=1 
C324: x8+x62 <=1 
C325: x8+x64 <=1 
C326: x9+x10 <=1 
C327: x9+x13 <=1 
C328: x9+x14-y9_14 <=1 
C329: x9+x15 <=1 
C330: x9+x16 <=1 
C331: x9+x17-y9_17 <=1 
C332: x9+x18-y9_18 <=1 
C333: x9+x20-y9_20 <=1 
C334: x9+x21 <=1 
C335: x9+x22 <=1 
C336: x9+x23 <=1 
C337: x9+x24-y9_24 <=1 
C338: x9+x25 <=1 
C339: x9+x27-y9_27 <=1 
C340: x9+x29 <=1 
C341: x9+x30 <=1 
C342: x9+x32-y9_32 <=1 
C343: x9+x33 <=1 
C344: x9+x34-y9_34 <=1 
C345: x9+x35 <=1 
C346: x9+x36-y9_36 <=1 
C347: x9+x37 <=1 
C348: x9+x38 <=1 
C349: x9+x40 <=1 
C350: x9+x43 <=1 
C351: x9+x44 <=1 
C352: x9+x45-y9_45 <=1 
C353: x9+x46-y9_46 <=1 
C354: x9+x49 <=1 
C355: x9+x50-y9_50 <=1 
C356: x9+x51-y9_51 <=1 
C357: x9+x52-y9_52 <=1 
C358: x9+x55 <=1 
C359: x9+x56-y9_56 <=1 
C360: x9+x57-y9_57 <=1 
C361: x9+x60 <=1 
C362: x9+x61 <=1 
C363: x9+x62-y9_62 <=1 
C364: x9+x63 <=1 
C365: x9+x64-y9_64 <=1 
C366: x10+x13-y10_13 <=1 
C367: x10+x15 <=1 
C368: x10+x18-y10_18 <=1 
C369: x10+x19 <=1 
C370: x10+x22 <=1 
C371: x10+x23 <=1 
C372: x10+x24-y10_24 <=1 
C373: x10+x25-y10_25 <=1 
C374: x10+x26-y10_26 <=1 
C375: x10+x27-y10_27 <=1 
C376: x10+x28-y10_28 <=1 
C377: x10+x29-y10_29 <=1 
C378: x10+x30 <=1 
C379: x10+x31-y10_31 <=1 
C380: x10+x35 <=1 
C381: x10+x36-y10_36 <=1 
C382: x10+x37-y10_37 <=1 
C383: x10+x38-y10_38 <=1 
C384: x10+x40 <=1 
C385: x10+x41-y10_41 <=1 
C386: x10+x42-y10_42 <=1 
C387: x10+x44-y10_44 <=1 
C388: x10+x45-y10_45 <=1 
C389: x10+x46 <=1 
C390: x10+x47 <=1 
C391: x10+x48-y10_48 <=1 
C392: x10+x49 <=1 
C393: x10+x50-y10_50 <=1 
C394: x10+x51-y10_51 <=1 
C395: x10+x54 <=1 
C396: x10+x56-y10_56 <=1 
C397: x10+x58-y10_58 <=1 
C398: x10+x59-y10_59 <=1 
C399: x10+x60-y10_60 <=1 
C400: x10+x61 <=1 
C401: x10+x63-y10_63 <=1 
C402: x11+x12 <=1 
C403: x11+x13-y11_13 <=1 
C404: x11+x15-y11_15 <=1 
C405: x11+x16-y11_16 <=1 
C406: x11+x17 <=1 
C407: x11+x18-y11_18 <=1 
C408: x11+x23-y11_23 <=1 
C409: x11+x25 <=1 
C410: x11+x26-y11_26 <=1 
C411: x11+x28-y11_28 <=1 
C412: x11+x29-y11_29 <=1 
C413: x11+x30 <=1 
C414: x11+x31 <=1 
C415: x11+x32-y11_32 <=1 
C416: x11+x35 <=1 
C417: x11+x36 <=1 
C418: x11+x37 <=1 
C419: x11+x39-y11_39 <=1 
C420: x11+x40-y11_40 <=1 
C421: x11+x43 <=1 
C422: x11+x44-y11_44 <=1 
C423: x11+x45-y11_45 <=1 
C424: x11+x46-y11_46 <=1 
C425: x11+x47-y11_47 <=1 
C426: x11+x49 <=1 
C427: x11+x50 <=1 
C428: x11+x52 <=1 
C429: x11+x53 <=1 
C430: x11+x54 <=1 
C431: x11+x55-y11_55 <=1 
C432: x11+x58-y11_58 <=1 
C433: x11+x59-y11_59 <=1 
C434: x11+x62 <=1 
C435: x11+x63-y11_63 <=1 
C436: x11+x64-y11_64 <=1 
C437: x11+x65-y11_65 <=1 
C438: x12+x13-y12_13 <=1 
C439: x12+x15 <=1 
C440: x12+x16-y12_16 <=1 
C441: x12+x18 <=1 
C442: x12+x19 <=1 
C443: x12+x20 <=1 
C444: x12+x23-y12_23 <=1 
C445: x12+x24-y12_24 <=1 
C446: x12+x25-y12_25 <=1 
C447: x12+x26 <=1 
C448: x12+x27-y12_27 <=1 
C449: x12+x29 <=1 
C450: x12+x30 <=1 
C451: x12+x32-y12_32 <=1 
C452: x12+x33-y12_33 <=1 
C453: x12+x34 <=1 
C454: x12+x35-y12_35 <=1 
C455: x12+x36 <=1 
C456: x12+x37-y12_37 <=1 
C457: x12+x38-y12_38 <=1 
C458: x12+x41-y12_41 <=1 
C459: x12+x42-y12_42 <=1 
C460: x12+x44 <=1 
C461: x12+x45-y12_45 <=1 
C462: x12+x46-y12_46 <=1 
C463: x12+x47 <=1 
C464: x12+x48 <=1 
C465: x12+x49-y12_49 <=1 
C466: x12+x50 <=1 
C467: x12+x52-y12_52 <=1 
C468: x12+x56 <=1 
C469: x12+x57-y12_57 <=1 
C470: x12+x58 <=1 
C471: x12+x59-y12_59 <=1 
C472: x12+x62-y12_62 <=1 
C473: x12+x63 <=1 
C474: x12+x64-y12_64 <=1 
C475: x12+x65 <=1 
C476: x13+x16-y13_16 <=1 
C477: x13+x17 <=1 
C478: x13+x20 <=1 
C479: x13+x21 <=1 
C480: x13+x22 <=1 
C481: x13+x24 <=1 
C482: x13+x25 <=1 
C483: x13+x26-y13_26 <=1 
C484: x13+x27 <=1 
C485: x13+x29 <=1 
C486: x13+x30-y13_30 <=1 
C487: x13+x32 <=1 
C488: x13+x33-y13_33 <=1 
C489: x13+x34 <=1 
C490: x13+x35 <=1 
C491: x13+x38 <=1 
C492: x13+x44 <=1 
C493: x13+x47-y13_47 <=1 
C494: x13+x49-y13_49 <=1 
C495: x13+x50 <=1 
C496: x13+x51 <=1 
C497: x13+x52 <=1 
C498: x13+x53-y13_53 <=1 
C499: x13+x54 <=1 
C500: x13+x56 <=1 
C501: x13+x57-y13_57 <=1 
C502: x13+x62-y13_62 <=1 
C503: x13+x64 <=1 
C504: x14+x15-y14_15 <=1 
C505: x14+x16-y14_16 <=1 
C506: x14+x17-y14_17 <=1 
C507: x14+x19 <=1 
C508: x14+x21 <=1 
C509: x14+x24 <=1 
C510: x14+x26 <=1 
C511: x14+x27-y14_27 <=1 
C512: x14+x28 <=1 
C513: x14+x29-y14_29 <=1 
C514: x14+x30-y14_30 <=1 
C515: x14+x32-y14_32 <=1 
C516: x14+x36-y14_36 <=1 
C517: x14+x37 <=1 
C518: x14+x38 <=1 
C519: x14+x39-y14_39 <=1 
C520: x14+x41-y14_41 <=1 
C521: x14+x42-y14_42 <=1 
C522: x14+x43-y14_43 <=1 
C523: x14+x44-y14_44 <=1 
C524: x14+x45 <=1 
C525: x14+x47-y14_47 <=1 
C526: x14+x50 <=1 
C527: x14+x52-y14_52 <=1 
C528: x14+x53-y14_53 <=1 
C529: x14+x54 <=1 
C530: x14+x55 <=1 
C531: x14+x56 <=1 
C532: x14+x57 <=1 
C533: x14+x61 <=1 
C534: x14+x63 <=1 
C535: x14+x64 <=1 
C536: x14+x65 <=1 
C537: x15+x16-y15_16 <=1 
C538: x15+x17-y15_17 <=1 
C539: x15+x20 <=1 
C540: x15+x21-y15_21 <=1 
C541: x15+x23 <=1 
C542: x15+x24 <=1 
C543: x15+x27 <=1 
C544: x15+x28-y15_28 <=1 
C545: x15+x29-y15_29 <=1 
C546: x15+x30-y15_30 <=1 
C547: x15+x31-y15_31 <=1 
C548: x15+x32-y15_32 <=1 
C549: x15+x33-y15_33 <=1 
C550: x15+x34-y15_34 <=1 
C551: x15+x37-y15_37 <=1 
C552: x15+x38-y15_38 <=1 
C553: x15+x39-y15_39 <=1 
C554: x15+x40 <=1 
C555: x15+x43 <=1 
C556: x15+x44 <=1 
C557: x15+x45-y15_45 <=1 
C558: x15+x46 <=1 
C559: x15+x47 <=1 
C560: x15+x48 <=1 
C561: x15+x51 <=1 
C562: x15+x52-y15_52 <=1 
C563: x15+x57-y15_57 <=1 
C564: x15+x58 <=1 
C565: x15+x60 <=1 
C566: x15+x62 <=1 
C567: x15+x65 <=1 
C568: x16+x17-y16_17 <=1 
C569: x16+x18 <=1 
C570: x16+x19-y16_19 <=1 
C571: x16+x23-y16_23 <=1 
C572: x16+x25-y16_25 <=1 
C573: x16+x26-y16_26 <=1 
C574: x16+x31 <=1 
C575: x16+x34-y16_34 <=1 
C576: x16+x35 <=1 
C577: x16+x37-y16_37 <=1 
C578: x16+x39-y16_39 <=1 
C579: x16+x40-y16_40 <=1 
C580: x16+x41 <=1 
C581: x16+x43 <=1 
C582: x16+x44-y16_44 <=1 
C583: x16+x45-y16_45 <=1 
C584: x16+x47 <=1 
C585: x16+x51 <=1 
C586: x16+x52 <=1 
C587: x16+x54-y16_54 <=1 
C588: x16+x55-y16_55 <=1 
C589: x16+x58 <=1 
C590: x16+x59 <=1 
C591: x16+x60-y16_60 <=1 
C592: x16+x61-y16_61 <=1 
C593: x16+x64 <=1 
C594: x17+x19-y17_19 <=1 
C595: x17+x20 <=1 
C596: x17+x21 <=1 
C597: x17+x23-y17_23 <=1 
C598: x17+x26 <=1 
C599: x17+x27 <=1 
C600: x17+x28-y17_28 <=1 
C601: x17+x32-y17_32 <=1 
C602: x17+x33 <=1 
C603: x17+x34-y17_34 <=1 
C604: x17+x35-y17_35 <=1 
C605: x17+x36 <=1 
C606: x17+x37 <=1 
C607: x17+x39-y17_39 <=1 
C608: x17+x40-y17_40 <=1 
C609: x17+x41 <=1 
C610: x17+x44 <=1 
C611: x17+x45 <=1 
C612: x17+x46-y17_46 <=1 
C613: x17+x47 <=1 
C614: x17+x48-y17_48 <=1 
C615: x17+x49-y17_49 <=1 
C616: x17+x50-y17_50 <=1 
C617: x17+x51 <=1 
C618: x17+x53-y17_53 <=1 
C619: x17+x58 <=1 
C620: x17+x59-y17_59 <=1 
C621: x17+x62 <=1 
C622: x17+x63-y17_63 <=1 
C623: x18+x19 <=1 
C624: x18+x20-y18_20 <=1 
C625: x18+x21 <=1 
C626: x18+x22 <=1 
C627: x18+x23-y18_23 <=1 
C628: x18+x24 <=1 
C629: x18+x25-y18_25 <=1 
C630: x18+x27-y18_27 <=1 
C631: x18+x28 <=1 
C632: x18+x29-y18_29 <=1 
C633: x18+x30-y18_30 <=1 
C634: x18+x32 <=1 
C635: x18+x33 <=1 
C636: x18+x34 <=1 
C637: x18+x36-y18_36 <=1 
C638: x18+x39-y18_39 <=1 
C639: x18+x42 <=1 
C640: x18+x43 <=1 
C641: x18+x46-y18_46 <=1 
C642: x18+x47-y18_47 <=1 
C643: x18+x49 <=1 
C644: x18+x51 <=1 
C645: x18+x52 <=1 
C646: x18+x53 <=1 
C647: x18+x54 <=1 
C648: x18+x55 <=1 
C649: x18+x56 <=1 
C650: x18+x57 <=1 
C651: x18+x58-y18_58 <=1 
C652: x18+x59 <=1 
C653: x18+x60 <=1 
C654: x18+x61 <=1 
C655: x18+x65-y18_65 <=1 
C656: x19+x21 <=1 
C657: x19+x23-y19_23 <=1 
C658: x19+x25 <=1 
C659: x19+x26 <=1 
C660: x19+x27-y19_27 <=1 
C661: x19+x28-y19_28 <=1 
C662: x19+x29-y19_29 <=1 
C663: x19+x30-y19_30 <=1 
C664: x19+x34-y19_34 <=1 
C665: x19+x35-y19_35 <=1 
C666: x19+x36 <=1 
C667: x19+x37 <=1 
C668: x19+x39-y19_39 <=1 
C669: x19+x41-y19_41 <=1 
C670: x19+x44 <=1 
C671: x19+x45 <=1 
C672: x19+x47-y19_47 <=1 
C673: x19+x49-y19_49 <=1 
C674: x19+x51 <=1 
C675: x19+x52 <=1 
C676: x19+x53 <=1 
C677: x19+x55-y19_55 <=1 
C678: x19+x57-y19_57 <=1 
C679: x19+x58 <=1 
C680: x19+x60-y19_60 <=1 
C681: x19+x61 <=1 
C682: x19+x63-y19_63 <=1 
C683: x19+x65-y19_65 <=1 
C684: x20+x21-y20_21 <=1 
C685: x20+x22-y20_22 <=1 
C686: x20+x25 <=1 
C687: x20+x28 <=1 
C688: x20+x29-y20_29 <=1 
C689: x20+x30-y20_30 <=1 
C690: x20+x32-y20_32 <=1 
C691: x20+x35-y20_35 <=1 
C692: x20+x36 <=1 
C693: x20+x37 <=1 
C694: x20+x38 <=1 
C695: x20+x39 <=1 
C696: x20+x41-y20_41 <=1 
C697: x20+x43-y20_43 <=1 
C698: x20+x44 <=1 
C699: x20+x45 <=1 
C700: x20+x46 <=1 
C701: x20+x47-y20_47 <=1 
C702: x20+x56-y20_56 <=1 
C703: x20+x58 <=1 
C704: x20+x62-y20_62 <=1 
C705: x20+x63 <=1 
C706: x21+x22-y21_22 <=1 
C707: x21+x23-y21_23 <=1 
C708: x21+x27 <=1 
C709: x21+x28 <=1 
C710: x21+x29 <=1 
C711: x21+x30 <=1 
C712: x21+x31-y21_31 <=1 
C713: x21+x32-y21_32 <=1 
C714: x21+x33 <=1 
C715: x21+x34-y21_34 <=1 
C716: x21+x35-y21_35 <=1 
C717: x21+x36 <=1 
C718: x21+x38 <=1 
C719: x21+x40 <=1 
C720: x21+x44 <=1 
C721: x21+x45-y21_45 <=1 
C722: x21+x46-y21_46 <=1 
C723: x21+x47-y21_47 <=1 
C724: x21+x50-y21_50 <=1 
C725: x21+x51 <=1 
C726: x21+x52-y21_52 <=1 
C727: x21+x53 <=1 
C728: x21+x55 <=1 
C729: x21+x56 <=1 
C730: x21+x57-y21_57 <=1 
C731: x21+x59-y21_59 <=1 
C732: x21+x60-y21_60 <=1 
C733: x21+x63-y21_63 <=1 
C734: x21+x64-y21_64 <=1 
C735: x21+x65 <=1 
C736: x22+x25 <=1 
C737: x22+x26-y22_26 <=1 
C738: x22+x27 <=1 
C739: x22+x31-y22_31 <=1 
C740: x22+x33 <=1 
C741: x22+x35-y22_35 <=1 
C742: x22+x36-y22_36 <=1 
C743: x22+x38-y22_38 <=1 
C744: x22+x39-y22_39 <=1 
C745: x22+x40 <=1 
C746: x22+x41 <=1 
C747: x22+x43 <=1 
C748: x22+x44-y22_44 <=1 
C749: x22+x45-y22_45 <=1 
C750: x22+x48-y22_48 <=1 
C751: x22+x49 <=1 
C752: x22+x51-y22_51 <=1 
C753: x22+x53-y22_53 <=1 
C754: x22+x54 <=1 
C755: x22+x55 <=1 
C756: x22+x57 <=1 
C757: x22+x60-y22_60 <=1 
C758: x22+x62 <=1 
C759: x22+x63 <=1 
C760: x22+x65 <=1 
C761: x23+x26 <=1 
C762: x23+x27-y23_27 <=1 
C763: x23+x29-y23_29 <=1 
C764: x23+x30 <=1 
C765: x23+x31 <=1 
C766: x23+x33 <=1 
C767: x23+x34 <=1 
C768: x23+x35 <=1 
C769: x23+x37-y23_37 <=1 
C770: x23+x38-y23_38 <=1 
C771: x23+x42-y23_42 <=1 
C772: x23+x43 <=1 
C773: x23+x44-y23_44 <=1 
C774: x23+x45 <=1 
C775: x23+x47-y23_47 <=1 
C776: x23+x48-y23_48 <=1 
C777: x23+x52-y23_52 <=1 
C778: x23+x54 <=1 
C779: x23+x56 <=1 
C780: x23+x57-y23_57 <=1 
C781: x23+x58 <=1 
C782: x23+x63-y23_63 <=1 
C783: x23+x65 <=1 
C784: x24+x27-y24_27 <=1 
C785: x24+x28 <=1 
C786: x24+x29 <=1 
C787: x24+x30 <=1 
C788: x24+x31-y24_31 <=1 
C789: x24+x32-y24_32 <=1 
C790: x24+x33-y24_33 <=1 
C791: x24+x37 <=1 
C792: x24+x38 <=1 
C793: x24+x40-y24_40 <=1 
C794: x24+x41 <=1 
C795: x24+x45 <=1 
C796: x24+x46-y24_46 <=1 
C797: x24+x48 <=1 
C798: x24+x49-y24_49 <=1 
C799: x24+x50 <=1 
C800: x24+x51-y24_51 <=1 
C801: x24+x53-y24_53 <=1 
C802: x24+x56 <=1 
C803: x24+x59 <=1 
C804: x24+x60 <=1 
C805: x24+x63 <=1 
C806: x24+x65 <=1 
C807: x25+x27-y25_27 <=1 
C808: x25+x28-y25_28 <=1 
C809: x25+x30-y25_30 <=1 
C810: x25+x32 <=1 
C811: x25+x33-y25_33 <=1 
C812: x25+x34-y25_34 <=1 
C813: x25+x36 <=1 
C814: x25+x37-y25_37 <=1 
C815: x25+x41 <=1 
C816: x25+x42-y25_42 <=1 
C817: x25+x43 <=1 
C818: x25+x45 <=1 
C819: x25+x47 <=1 
C820: x25+x48-y25_48 <=1 
C821: x25+x50 <=1 
C822: x25+x51 <=1 
C823: x25+x52 <=1 
C824: x25+x55 <=1 
C825: x25+x59 <=1 
C826: x25+x60 <=1 
C827: x25+x61-y25_61 <=1 
C828: x25+x63 <=1 
C829: x25+x64-y25_64 <=1 
C830: x25+x65-y25_65 <=1 
C831: x26+x27 <=1 
C832: x26+x28 <=1 
C833: x26+x34-y26_34 <=1 
C834: x26+x35-y26_35 <=1 
C835: x26+x37 <=1 
C836: x26+x38 <=1 
C837: x26+x39 <=1 
C838: x26+x40-y26_40 <=1 
C839: x26+x41 <=1 
C840: x26+x44-y26_44 <=1 
C841: x26+x45-y26_45 <=1 
C842: x26+x46 <=1 
C843: x26+x48-y26_48 <=1 
C844: x26+x52-y26_52 <=1 
C845: x26+x53 <=1 
C846: x26+x54-y26_54 <=1 
C847: x26+x55 <=1 
C848: x26+x56 <=1 
C849: x26+x57-y26_57 <=1 
C850: x26+x58-y26_58 <=1 
C851: x26+x59 <=1 
C852: x26+x60-y26_60 <=1 
C853: x26+x61 <=1 
C854: x26+x63-y26_63 <=1 
C855: x26+x65 <=1 
C856: x27+x28-y27_28 <=1 
C857: x27+x31-y27_31 <=1 
C858: x27+x32 <=1 
C859: x27+x33 <=1 
C860: x27+x34 <=1 
C861: x27+x36 <=1 
C862: x27+x37 <=1 
C863: x27+x41-y27_41 <=1 
C864: x27+x42-y27_42 <=1 
C865: x27+x45-y27_45 <=1 
C866: x27+x48 <=1 
C867: x27+x49 <=1 
C868: x27+x51-y27_51 <=1 
C869: x27+x52-y27_52 <=1 
C870: x27+x53 <=1 
C871: x27+x54 <=1 
C872: x27+x55-y27_55 <=1 
C873: x27+x57-y27_57 <=1 
C874: x27+x59-y27_59 <=1 
C875: x27+x61 <=1 
C876: x27+x64-y27_64 <=1 
C877: x27+x65 <=1 
C878: x28+x32 <=1 
C879: x28+x35 <=1 
C880: x28+x36 <=1 
C881: x28+x38-y28_38 <=1 
C882: x28+x40 <=1 
C883: x28+x43-y28_43 <=1 
C884: x28+x44-y28_44 <=1 
C885: x28+x46-y28_46 <=1 
C886: x28+x47-y28_47 <=1 
C887: x28+x48 <=1 
C888: x28+x49 <=1 
C889: x28+x51-y28_51 <=1 
C890: x28+x53 <=1 
C891: x28+x54 <=1 
C892: x28+x57 <=1 
C893: x28+x58 <=1 
C894: x28+x59 <=1 
C895: x28+x60-y28_60 <=1 
C896: x28+x61 <=1 
C897: x28+x62 <=1 
C898: x28+x63 <=1 
C899: x28+x64-y28_64 <=1 
C900: x29+x30-y29_30 <=1 
C901: x29+x31-y29_31 <=1 
C902: x29+x32-y29_32 <=1 
C903: x29+x33 <=1 
C904: x29+x35 <=1 
C905: x29+x36-y29_36 <=1 
C906: x29+x37 <=1 
C907: x29+x41 <=1 
C908: x29+x42-y29_42 <=1 
C909: x29+x44-y29_44 <=1 
C910: x29+x45 <=1 
C911: x29+x46-y29_46 <=1 
C912: x29+x47 <=1 
C913: x29+x49-y29_49 <=1 
C914: x29+x50-y29_50 <=1 
C915: x29+x51-y29_51 <=1 
C916: x29+x53 <=1 
C917: x29+x56-y29_56 <=1 
C918: x29+x58 <=1 
C919: x29+x60-y29_60 <=1 
C920: x29+x62-y29_62 <=1 
C921: x30+x31-y30_31 <=1 
C922: x30+x34 <=1 
C923: x30+x35-y30_35 <=1 
C924: x30+x36-y30_36 <=1 
C925: x30+x37-y30_37 <=1 
C926: x30+x39 <=1 
C927: x30+x43 <=1 
C928: x30+x44-y30_44 <=1 
C929: x30+x45 <=1 
C930: x30+x46 <=1 
C931: x30+x47-y30_47 <=1 
C932: x30+x48-y30_48 <=1 
C933: x30+x51-y30_51 <=1 
C934: x30+x52 <=1 
C935: x30+x53 <=1 
C936: x30+x57 <=1 
C937: x30+x58 <=1 
C938: x30+x60-y30_60 <=1 
C939: x30+x62-y30_62 <=1 
C940: x30+x64 <=1 
C941: x30+x65 <=1 
C942: x31+x32 <=1 
C943: x31+x33 <=1 
C944: x31+x34 <=1 
C945: x31+x36 <=1 
C946: x31+x38-y31_38 <=1 
C947: x31+x40 <=1 
C948: x31+x43 <=1 
C949: x31+x44-y31_44 <=1 
C950: x31+x45-y31_45 <=1 
C951: x31+x46 <=1 
C952: x31+x48-y31_48 <=1 
C953: x31+x49 <=1 
C954: x31+x52-y31_52 <=1 
C955: x31+x53 <=1 
C956: x31+x54 <=1 
C957: x31+x55 <=1 
C958: x31+x56 <=1 
C959: x31+x58-y31_58 <=1 
C960: x31+x60-y31_60 <=1 
C961: x31+x62 <=1 
C962: x31+x64-y31_64 <=1 
C963: x32+x33-y32_33 <=1 
C964: x32+x34 <=1 
C965: x32+x35 <=1 
C966: x32+x36-y32_36 <=1 
C967: x32+x38-y32_38 <=1 
C968: x32+x39-y32_39 <=1 
C969: x32+x40 <=1 
C970: x32+x42 <=1 
C971: x32+x46 <=1 
C972: x32+x47-y32_47 <=1 
C973: x32+x48-y32_48 <=1 
C974: x32+x49-y32_49 <=1 
C975: x32+x50-y32_50 <=1 
C976: x32+x52-y32_52 <=1 
C977: x32+x53-y32_53 <=1 
C978: x32+x54-y32_54 <=1 
C979: x32+x55 <=1 
C980: x32+x56 <=1 
C981: x32+x57 <=1 
C982: x32+x59 <=1 
C983: x32+x61-y32_61 <=1 
C984: x32+x62-y32_62 <=1 
C985: x32+x65-y32_65 <=1 
C986: x33+x34-y33_34 <=1 
C987: x33+x35 <=1 
C988: x33+x36-y33_36 <=1 
C989: x33+x37-y33_37 <=1 
C990: x33+x40-y33_40 <=1 
C991: x33+x43 <=1 
C992: x33+x45 <=1 
C993: x33+x46 <=1 
C994: x33+x48-y33_48 <=1 
C995: x33+x49 <=1 
C996: x33+x50-y33_50 <=1 
C997: x33+x51 <=1 
C998: x33+x52-y33_52 <=1 
C999: x33+x53 <=1 
C1000: x33+x54-y33_54 <=1 
C1001: x33+x56-y33_56 <=1 
C1002: x33+x60 <=1 
C1003: x33+x62 <=1 
C1004: x33+x63-y33_63 <=1 
C1005: x33+x65 <=1 
C1006: x34+x35-y34_35 <=1 
C1007: x34+x36 <=1 
C1008: x34+x38 <=1 
C1009: x34+x40 <=1 
C1010: x34+x43 <=1 
C1011: x34+x44-y34_44 <=1 
C1012: x34+x45 <=1 
C1013: x34+x48 <=1 
C1014: x34+x50-y34_50 <=1 
C1015: x34+x52-y34_52 <=1 
C1016: x34+x55-y34_55 <=1 
C1017: x34+x56 <=1 
C1018: x34+x57-y34_57 <=1 
C1019: x34+x58-y34_58 <=1 
C1020: x34+x59-y34_59 <=1 
C1021: x34+x60-y34_60 <=1 
C1022: x34+x61 <=1 
C1023: x34+x63 <=1 
C1024: x34+x64 <=1 
C1025: x34+x65 <=1 
C1026: x35+x36 <=1 
C1027: x35+x41-y35_41 <=1 
C1028: x35+x43-y35_43 <=1 
C1029: x35+x45 <=1 
C1030: x35+x50-y35_50 <=1 
C1031: x35+x51 <=1 
C1032: x35+x53 <=1 
C1033: x35+x54 <=1 
C1034: x35+x56 <=1 
C1035: x35+x57 <=1 
C1036: x35+x58 <=1 
C1037: x35+x61 <=1 
C1038: x35+x62 <=1 
C1039: x35+x64-y35_64 <=1 
C1040: x36+x37 <=1 
C1041: x36+x38 <=1 
C1042: x36+x39-y36_39 <=1 
C1043: x36+x40 <=1 
C1044: x36+x42 <=1 
C1045: x36+x43-y36_43 <=1 
C1046: x36+x44-y36_44 <=1 
C1047: x36+x45 <=1 
C1048: x36+x48 <=1 
C1049: x36+x49-y36_49 <=1 
C1050: x36+x50-y36_50 <=1 
C1051: x36+x51 <=1 
C1052: x36+x53-y36_53 <=1 
C1053: x36+x55 <=1 
C1054: x36+x56-y36_56 <=1 
C1055: x36+x57-y36_57 <=1 
C1056: x36+x59 <=1 
C1057: x36+x61 <=1 
C1058: x36+x64 <=1 
C1059: x36+x65 <=1 
C1060: x37+x38 <=1 
C1061: x37+x39-y37_39 <=1 
C1062: x37+x40-y37_40 <=1 
C1063: x37+x41 <=1 
C1064: x37+x42-y37_42 <=1 
C1065: x37+x43 <=1 
C1066: x37+x44 <=1 
C1067: x37+x45 <=1 
C1068: x37+x50 <=1 
C1069: x37+x51 <=1 
C1070: x37+x52 <=1 
C1071: x37+x56 <=1 
C1072: x37+x57-y37_57 <=1 
C1073: x37+x58 <=1 
C1074: x37+x59 <=1 
C1075: x37+x60 <=1 
C1076: x37+x61-y37_61 <=1 
C1077: x37+x62 <=1 
C1078: x37+x63 <=1 
C1079: x38+x39-y38_39 <=1 
C1080: x38+x40 <=1 
C1081: x38+x41 <=1 
C1082: x38+x44-y38_44 <=1 
C1083: x38+x46-y38_46 <=1 
C1084: x38+x48 <=1 
C1085: x38+x49 <=1 
C1086: x38+x50 <=1 
C1087: x38+x52-y38_52 <=1 
C1088: x38+x53 <=1 
C1089: x38+x54-y38_54 <=1 
C1090: x38+x55 <=1 
C1091: x38+x56 <=1 
C1092: x38+x59 <=1 
C1093: x38+x61 <=1 
C1094: x38+x63-y38_63 <=1 
C1095: x38+x64 <=1 
C1096: x38+x65 <=1 
C1097: x39+x41 <=1 
C1098: x39+x42 <=1 
C1099: x39+x46-y39_46 <=1 
C1100: x39+x48 <=1 
C1101: x39+x50 <=1 
C1102: x39+x51 <=1 
C1103: x39+x53-y39_53 <=1 
C1104: x39+x55-y39_55 <=1 
C1105: x39+x57-y39_57 <=1 
C1106: x39+x59-y39_59 <=1 
C1107: x39+x60 <=1 
C1108: x39+x61-y39_61 <=1 
C1109: x39+x62-y39_62 <=1 
C1110: x39+x63 <=1 
C1111: x39+x65 <=1 
C1112: x40+x41-y40_41 <=1 
C1113: x40+x42 <=1 
C1114: x40+x44 <=1 
C1115: x40+x46 <=1 
C1116: x40+x47-y40_47 <=1 
C1117: x40+x48 <=1 
C1118: x40+x53 <=1 
C1119: x40+x55-y40_55 <=1 
C1120: x40+x56 <=1 
C1121: x40+x57 <=1 
C1122: x40+x58 <=1 
C1123: x40+x59 <=1 
C1124: x40+x60-y40_60 <=1 
C1125: x40+x61-y40_61 <=1 
C1126: x40+x62 <=1 
C1127: x40+x63 <=1 
C1128: x40+x65 <=1 
C1129: x41+x42 <=1 
C1130: x41+x43-y41_43 <=1 
C1131: x41+x44 <=1 
C1132: x41+x46-y41_46 <=1 
C1133: x41+x47-y41_47 <=1 
C1134: x41+x48-y41_48 <=1 
C1135: x41+x50 <=1 
C1136: x41+x52 <=1 
C1137: x41+x54-y41_54 <=1 
C1138: x41+x56-y41_56 <=1 
C1139: x41+x60-y41_60 <=1 
C1140: x41+x63 <=1 
C1141: x41+x65-y41_65 <=1 
C1142: x42+x43 <=1 
C1143: x42+x44 <=1 
C1144: x42+x47-y42_47 <=1 
C1145: x42+x48 <=1 
C1146: x42+x49 <=1 
C1147: x42+x50-y42_50 <=1 
C1148: x42+x55 <=1 
C1149: x42+x59 <=1 
C1150: x42+x62 <=1 
C1151: x42+x64-y42_64 <=1 
C1152: x42+x65-y42_65 <=1 
C1153: x43+x45 <=1 
C1154: x43+x46 <=1 
C1155: x43+x48 <=1 
C1156: x43+x49 <=1 
C1157: x43+x52-y43_52 <=1 
C1158: x43+x53 <=1 
C1159: x43+x54 <=1 
C1160: x43+x55-y43_55 <=1 
C1161: x43+x56 <=1 
C1162: x43+x57 <=1 
C1163: x43+x61 <=1 
C1164: x43+x62-y43_62 <=1 
C1165: x43+x64 <=1 
C1166: x43+x65 <=1 
C1167: x44+x46-y44_46 <=1 
C1168: x44+x48 <=1 
C1169: x44+x49-y44_49 <=1 
C1170: x44+x50-y44_50 <=1 
C1171: x44+x54-y44_54 <=1 
C1172: x44+x56 <=1 
C1173: x44+x59 <=1 
C1174: x44+x61 <=1 
C1175: x44+x62 <=1 
C1176: x44+x64 <=1 
C1177: x45+x47 <=1 
C1178: x45+x48-y45_48 <=1 
C1179: x45+x54-y45_54 <=1 
C1180: x45+x55-y45_55 <=1 
C1181: x45+x57 <=1 
C1182: x45+x59-y45_59 <=1 
C1183: x45+x61-y45_61 <=1 
C1184: x45+x62-y45_62 <=1 
C1185: x45+x64-y45_64 <=1 
C1186: x46+x47 <=1 
C1187: x46+x48 <=1 
C1188: x46+x50-y46_50 <=1 
C1189: x46+x51 <=1 
C1190: x46+x52 <=1 
C1191: x46+x53-y46_53 <=1 
C1192: x46+x55-y46_55 <=1 
C1193: x46+x56-y46_56 <=1 
C1194: x46+x57 <=1 
C1195: x46+x58 <=1 
C1196: x46+x59 <=1 
C1197: x46+x61-y46_61 <=1 
C1198: x46+x62 <=1 
C1199: x46+x63 <=1 
C1200: x46+x64 <=1 
C1201: x46+x65-y46_65 <=1 
C1202: x47+x48 <=1 
C1203: x47+x49 <=1 
C1204: x47+x50 <=1 
C1205: x47+x52-y47_52 <=1 
C1206: x47+x54-y47_54 <=1 
C1207: x47+x57 <=1 
C1208: x47+x58 <=1 
C1209: x47+x60 <=1 
C1210: x47+x62 <=1 
C1211: x47+x64-y47_64 <=1 
C1212: x47+x65 <=1 
C1213: x48+x50-y48_50 <=1 
C1214: x48+x52-y48_52 <=1 
C1215: x48+x55 <=1 
C1216: x48+x56 <=1 
C1217: x48+x57-y48_57 <=1 
C1218: x48+x58 <=1 
C1219: x48+x61-y48_61 <=1 
C1220: x48+x62-y48_62 <=1 
C1221: x48+x63 <=1 
C1222: x48+x64 <=1 
C1223: x49+x50-y49_50 <=1 
C1224: x49+x51-y49_51 <=1 
C1225: x49+x53-y49_53 <=1 
C1226: x49+x54-y49_54 <=1 
C1227: x49+x55 <=1 
C1228: x49+x56-y49_56 <=1 
C1229: x49+x57 <=1 
C1230: x49+x58 <=1 
C1231: x49+x59 <=1 
C1232: x49+x60 <=1 
C1233: x49+x61 <=1 
C1234: x49+x63 <=1 
C1235: x49+x64 <=1 
C1236: x50+x52 <=1 
C1237: x50+x53-y50_53 <=1 
C1238: x50+x55 <=1 
C1239: x50+x56 <=1 
C1240: x50+x58 <=1 
C1241: x50+x59-y50_59 <=1 
C1242: x50+x60-y50_60 <=1 
C1243: x50+x61-y50_61 <=1 
C1244: x50+x62-y50_62 <=1 
C1245: x50+x64 <=1 
C1246: x51+x52-y51_52 <=1 
C1247: x51+x53 <=1 
C1248: x51+x54-y51_54 <=1 
C1249: x51+x55 <=1 
C1250: x51+x56-y51_56 <=1 
C1251: x51+x58-y51_58 <=1 
C1252: x51+x61-y51_61 <=1 
C1253: x51+x62-y51_62 <=1 
C1254: x51+x63-y51_63 <=1 
C1255: x51+x64-y51_64 <=1 
C1256: x51+x65 <=1 
C1257: x52+x53-y52_53 <=1 
C1258: x52+x54 <=1 
C1259: x52+x55 <=1 
C1260: x52+x57 <=1 
C1261: x52+x60 <=1 
C1262: x52+x62 <=1 
C1263: x53+x54 <=1 
C1264: x53+x55 <=1 
C1265: x53+x56 <=1 
C1266: x53+x57-y53_57 <=1 
C1267: x53+x58 <=1 
C1268: x53+x59 <=1 
C1269: x53+x61-y53_61 <=1 
C1270: x53+x62-y53_62 <=1 
C1271: x53+x63 <=1 
C1272: x53+x65-y53_65 <=1 
C1273: x54+x55 <=1 
C1274: x54+x58 <=1 
C1275: x54+x59 <=1 
C1276: x54+x60-y54_60 <=1 
C1277: x54+x62-y54_62 <=1 
C1278: x54+x63 <=1 
C1279: x54+x65-y54_65 <=1 
C1280: x55+x56 <=1 
C1281: x55+x58-y55_58 <=1 
C1282: x55+x59-y55_59 <=1 
C1283: x55+x60-y55_60 <=1 
C1284: x55+x62 <=1 
C1285: x55+x64 <=1 
C1286: x55+x65 <=1 
C1287: x56+x58-y56_58 <=1 
C1288: x56+x59 <=1 
C1289: x56+x60 <=1 
C1290: x56+x61 <=1 
C1291: x56+x62 <=1 
C1292: x56+x64 <=1 
C1293: x56+x65 <=1 
C1294: x57+x59 <=1 
C1295: x57+x60-y57_60 <=1 
C1296: x57+x62-y57_62 <=1 
C1297: x57+x63 <=1 
C1298: x58+x59-y58_59 <=1 
C1299: x58+x62 <=1 
C1300: x59+x63-y59_63 <=1 
C1301: x59+x64-y59_64 <=1 
C1302: x60+x62-y60_62 <=1 
C1303: x60+x63-y60_63 <=1 
C1304: x60+x65 <=1 
C1305: x61+x64-y61_64 <=1 
C1306: x61+x65-y61_65 <=1 
C1307: x62+x63 <=1 
C1308: x62+x64-y62_64 <=1 
C1309: x62+x65-y62_65 <=1 
C1310: x63+x64-y63_64 <=1 

binary
x0
x1
x2
x3
x4
x5
x6
x7
x8
x9
x10
x11
x12
x13
x14
x15
x16
x17
x18
x19
x20
x21
x22
x23
x24
x25
x26
x27
x28
x29
x30
x31
x32
x33
x34
x35
x36
x37
x38
x39
x40
x41
x42
x43
x44
x45
x46
x47
x48
x49
x50
x51
x52
x53
x54
x55
x56
x57
x58
x59
x60
x61
x62
x63
x64
x65
