problem_generation/data/GISP/train/er_n=66_m=1310_p=0.60_SET2_setparam=100.00_alpha=0.50_869.sol
objective value:                                 1173
x4                                                  1 	(obj:100)
x20                                                 1 	(obj:100)
x21                                                 1 	(obj:100)
x22                                                 1 	(obj:100)
x24                                                 1 	(obj:100)
x26                                                 1 	(obj:100)
x31                                                 1 	(obj:100)
x35                                                 1 	(obj:100)
x42                                                 1 	(obj:100)
x47                                                 1 	(obj:100)
x52                                                 1 	(obj:100)
x64                                                 1 	(obj:100)
y21_64                                              1 	(obj:-1)
y47_52                                              1 	(obj:-1)
y35_64                                              1 	(obj:-1)
y21_22                                              1 	(obj:-1)
y21_31                                              1 	(obj:-1)
y21_35                                              1 	(obj:-1)
y31_52                                              1 	(obj:-1)
y24_31                                              1 	(obj:-1)
y20_47                                              1 	(obj:-1)
y4_52                                               1 	(obj:-1)
y42_47                                              1 	(obj:-1)
y4_47                                               1 	(obj:-1)
y26_52                                              1 	(obj:-1)
y22_31                                              1 	(obj:-1)
y22_26                                              1 	(obj:-1)
y22_35                                              1 	(obj:-1)
y47_64                                              1 	(obj:-1)
y21_52                                              1 	(obj:-1)
y21_47                                              1 	(obj:-1)
y31_64                                              1 	(obj:-1)
y4_42                                               1 	(obj:-1)
y42_64                                              1 	(obj:-1)
y20_22                                              1 	(obj:-1)
y20_35                                              1 	(obj:-1)
y20_21                                              1 	(obj:-1)
y4_22                                               1 	(obj:-1)
y26_35                                              1 	(obj:-1)
